c pcminimize - minimizing a CNF with respect to propagation completeness by iterative removing of absorbed clauses.
c Petr Kucera, 2016-2021
c Version 2.7, revision 59, git hash 4910a71, date 2024-07-16 20:17:42 +0200
p cnf 86 166
-5 -33 0
4 -33 0
5 -34 0
-4 -34 0
33 34 -35 0
23 -36 0
36 -38 0
37 -38 0
38 -39 0
22 -39 0
21 -40 0
24 -40 0
40 -42 0
41 -42 0
42 -43 0
-22 -43 0
1 -45 0
-2 -45 0
46 -49 0
47 -49 0
48 -49 0
35 -50 0
44 -50 0
49 -50 0
19 -51 0
-1 -52 0
2 -52 0
46 -53 0
47 -53 0
35 -54 0
52 -54 0
53 -54 0
54 -55 0
8 -55 0
-15 -56 0
17 -56 0
56 -57 0
46 -57 0
57 -58 0
14 -58 0
16 -59 0
59 -60 0
47 -60 0
60 -61 0
-14 -61 0
58 61 -62 0
4 -63 0
-5 -63 0
-13 -63 0
62 -65 0
63 -65 0
64 -65 0
65 -66 0
12 -66 0
-4 -67 0
5 -67 0
67 -68 0
46 -68 0
47 -68 0
68 -69 0
66 69 -70 0
-2 -71 0
1 -71 0
2 -72 0
-1 -72 0
71 72 -73 0
70 -74 0
73 -74 0
7 -74 0
74 -75 0
-8 -75 0
76 -78 0
41 -79 0
37 -79 0
-19 -80 0
81 -83 0
84 -86 0
85 -86 0
3 0
6 0
9 0
-10 0
11 0
-26 0
27 0
-28 0
29 0
32 0
-79 80 0
-77 78 0
8 75 0
-74 75 0
-7 74 0
-73 74 0
-72 73 0
-83 86 0
-71 73 0
-70 74 0
-68 69 0
-67 68 0
-66 70 0
18 64 0
-63 65 0
13 63 0
-62 65 0
-59 60 0
2 45 71 0
-12 66 0
-78 79 0
-43 44 0
1 52 72 0
22 43 0
-16 46 59 0
-46 49 53 57 68 0
-42 43 0
-21 40 0
-38 39 0
-69 70 0
17 47 0
-64 65 0
-49 50 0
-61 62 0
5 33 63 0
-1 45 71 0
-53 54 0
-35 50 54 0
-41 42 79 0
-44 50 0
-4 33 63 0
-22 39 77 0
-33 35 0
-37 38 79 0
-47 49 53 60 68 0
15 56 0
4 34 67 0
-82 83 0
-34 35 0
-23 36 41 0
-36 38 0
-75 76 0
-40 42 0
24 37 0
23 41 0
-58 62 0
-60 61 0
20 45 0
16 46 0
-20 77 0
-17 47 56 0
-45 50 0
25 48 0
-52 54 0
-65 66 0
-48 49 0
-50 51 0
-6 82 0
-5 34 67 0
-2 52 72 0
7 45 52 0
-54 55 0
-56 57 0
-57 58 0
-76 78 0
-39 44 0
-24 37 40 0
-14 58 0
